p wcnf 302 1008
w -2 0.367879 0
w 2 2.718282 0
w -3 0.367879 0
w 3 2.718282 0
w -4 0.367879 0
w 4 2.718282 0
w -5 0.367879 0
w 5 2.718282 0
w -6 0.367879 0
w 6 2.718282 0
w -7 0.367879 0
w 7 2.718282 0
w -8 0.367879 0
w 8 2.718282 0
w -9 0.367879 0
w 9 2.718282 0
w -10 0.367879 0
w 10 2.718282 0
w -11 0.367879 0
w 11 2.718282 0
w -12 0.367879 0
w 12 2.718282 0
w -14 0.367879 0
w 14 2.718282 0
w -15 0.367879 0
w 15 2.718282 0
w -16 0.367879 0
w 16 2.718282 0
w -17 0.367879 0
w 17 2.718282 0
w -18 0.367879 0
w 18 2.718282 0
w -19 0.367879 0
w 19 2.718282 0
w -20 0.367879 0
w 20 2.718282 0
w -22 0.367879 0
w 22 2.718282 0
w -23 0.367879 0
w 23 2.718282 0
w -24 0.367879 0
w 24 2.718282 0
w -25 0.367879 0
w 25 2.718282 0
w -26 0.367879 0
w 26 2.718282 0
w -27 0.367879 0
w 27 2.718282 0
w -28 0.367879 0
w 28 2.718282 0
w -29 0.367879 0
w 29 2.718282 0
w -30 0.367879 0
w 30 2.718282 0
w -31 0.367879 0
w 31 2.718282 0
w -32 0.367879 0
w 32 2.718282 0
w -33 0.367879 0
w 33 2.718282 0
w -34 0.367879 0
w 34 2.718282 0
w -36 0.367879 0
w 36 2.718282 0
w -37 0.367879 0
w 37 2.718282 0
w -38 0.367879 0
w 38 2.718282 0
w -39 0.367879 0
w 39 2.718282 0
w -40 0.367879 0
w 40 2.718282 0
w -41 0.367879 0
w 41 2.718282 0
w -42 0.367879 0
w 42 2.718282 0
w -43 0.367879 0
w 43 2.718282 0
w -44 0.367879 0
w 44 2.718282 0
w -45 0.367879 0
w 45 2.718282 0
w -46 0.367879 0
w 46 2.718282 0
w -47 0.367879 0
w 47 2.718282 0
w -49 0.367879 0
w 49 2.718282 0
w -50 0.367879 0
w 50 2.718282 0
w -51 0.367879 0
w 51 2.718282 0
w -52 0.367879 0
w 52 2.718282 0
w -53 0.367879 0
w 53 2.718282 0
w -54 0.367879 0
w 54 2.718282 0
w -55 0.367879 0
w 55 2.718282 0
w -56 0.367879 0
w 56 2.718282 0
w -57 0.367879 0
w 57 2.718282 0
w -58 0.367879 0
w 58 2.718282 0
w -59 0.367879 0
w 59 2.718282 0
w -61 0.367879 0
w 61 2.718282 0
w -62 0.367879 0
w 62 2.718282 0
w -63 0.367879 0
w 63 2.718282 0
w -64 0.367879 0
w 64 2.718282 0
w -65 0.367879 0
w 65 2.718282 0
w -66 0.367879 0
w 66 2.718282 0
w -67 0.367879 0
w 67 2.718282 0
w -68 0.367879 0
w 68 2.718282 0
w -69 0.367879 0
w 69 2.718282 0
w -71 0.367879 0
w 71 2.718282 0
w -72 0.367879 0
w 72 2.718282 0
w -73 0.367879 0
w 73 2.718282 0
w -74 0.367879 0
w 74 2.718282 0
w -76 0.367879 0
w 76 2.718282 0
w -77 0.367879 0
w 77 2.718282 0
w -78 0.367879 0
w 78 2.718282 0
w -79 0.367879 0
w 79 2.718282 0
w -80 0.367879 0
w 80 2.718282 0
w -81 0.367879 0
w 81 2.718282 0
w -82 0.367879 0
w 82 2.718282 0
w -83 0.367879 0
w 83 2.718282 0
w -84 0.367879 0
w 84 2.718282 0
w -85 0.367879 0
w 85 2.718282 0
w -87 0.367879 0
w 87 2.718282 0
w -88 0.367879 0
w 88 2.718282 0
w -89 0.367879 0
w 89 2.718282 0
w -90 0.367879 0
w 90 2.718282 0
w -91 0.367879 0
w 91 2.718282 0
w -92 0.367879 0
w 92 2.718282 0
w -93 0.367879 0
w 93 2.718282 0
w -94 0.367879 0
w 94 2.718282 0
w -95 0.367879 0
w 95 2.718282 0
w -96 0.367879 0
w 96 2.718282 0
w -97 0.367879 0
w 97 2.718282 0
w -98 0.367879 0
w 98 2.718282 0
w -99 0.367879 0
w 99 2.718282 0
w -101 0.367879 0
w 101 2.718282 0
w -102 0.367879 0
w 102 2.718282 0
w -103 0.367879 0
w 103 2.718282 0
w -104 0.367879 0
w 104 2.718282 0
w -105 0.367879 0
w 105 2.718282 0
w -106 0.367879 0
w 106 2.718282 0
w -107 0.367879 0
w 107 2.718282 0
w -108 0.367879 0
w 108 2.718282 0
w -109 0.367879 0
w 109 2.718282 0
w -111 0.367879 0
w 111 2.718282 0
w -112 0.367879 0
w 112 2.718282 0
w -113 0.367879 0
w 113 2.718282 0
w -114 0.367879 0
w 114 2.718282 0
w -115 0.367879 0
w 115 2.718282 0
w -117 0.367879 0
w 117 2.718282 0
w -118 0.367879 0
w 118 2.718282 0
w -119 0.367879 0
w 119 2.718282 0
w -120 0.367879 0
w 120 2.718282 0
w -121 0.367879 0
w 121 2.718282 0
w -122 0.367879 0
w 122 2.718282 0
w -123 0.367879 0
w 123 2.718282 0
w -125 0.367879 0
w 125 2.718282 0
w -126 0.367879 0
w 126 2.718282 0
w -127 0.367879 0
w 127 2.718282 0
w -128 0.367879 0
w 128 2.718282 0
w -129 0.367879 0
w 129 2.718282 0
w -130 0.367879 0
w 130 2.718282 0
w -132 0.367879 0
w 132 2.718282 0
w -133 0.367879 0
w 133 2.718282 0
w -134 0.367879 0
w 134 2.718282 0
w -135 0.367879 0
w 135 2.718282 0
w -137 0.367879 0
w 137 2.718282 0
w -138 0.367879 0
w 138 2.718282 0
w -139 0.367879 0
w 139 2.718282 0
w -140 0.367879 0
w 140 2.718282 0
w -141 0.367879 0
w 141 2.718282 0
w -142 0.367879 0
w 142 2.718282 0
w -143 0.367879 0
w 143 2.718282 0
w -144 0.367879 0
w 144 2.718282 0
w -145 0.367879 0
w 145 2.718282 0
w -146 0.367879 0
w 146 2.718282 0
w -147 0.367879 0
w 147 2.718282 0
w -149 0.367879 0
w 149 2.718282 0
w -150 0.367879 0
w 150 2.718282 0
w -151 0.367879 0
w 151 2.718282 0
w -152 0.367879 0
w 152 2.718282 0
w -153 0.367879 0
w 153 2.718282 0
w -154 0.367879 0
w 154 2.718282 0
w -156 0.367879 0
w 156 2.718282 0
w -157 0.367879 0
w 157 2.718282 0
w -158 0.367879 0
w 158 2.718282 0
w -159 0.367879 0
w 159 2.718282 0
w -160 0.367879 0
w 160 2.718282 0
w -161 0.367879 0
w 161 2.718282 0
w -163 0.367879 0
w 163 2.718282 0
w -164 0.367879 0
w 164 2.718282 0
w -165 0.367879 0
w 165 2.718282 0
w -166 0.367879 0
w 166 2.718282 0
w -167 0.367879 0
w 167 2.718282 0
w -168 0.367879 0
w 168 2.718282 0
w -169 0.367879 0
w 169 2.718282 0
w -170 0.367879 0
w 170 2.718282 0
w -171 0.367879 0
w 171 2.718282 0
w -173 0.367879 0
w 173 2.718282 0
w -174 0.367879 0
w 174 2.718282 0
w -175 0.367879 0
w 175 2.718282 0
w -176 0.367879 0
w 176 2.718282 0
w -177 0.367879 0
w 177 2.718282 0
w -178 0.367879 0
w 178 2.718282 0
w -179 0.367879 0
w 179 2.718282 0
w -181 0.367879 0
w 181 2.718282 0
w -182 0.367879 0
w 182 2.718282 0
w -183 0.367879 0
w 183 2.718282 0
w -184 0.367879 0
w 184 2.718282 0
w -185 0.367879 0
w 185 2.718282 0
w -186 0.367879 0
w 186 2.718282 0
w -187 0.367879 0
w 187 2.718282 0
w -189 0.367879 0
w 189 2.718282 0
w -190 0.367879 0
w 190 2.718282 0
w -191 0.367879 0
w 191 2.718282 0
w -192 0.367879 0
w 192 2.718282 0
w -193 0.367879 0
w 193 2.718282 0
w -195 0.367879 0
w 195 2.718282 0
w -196 0.367879 0
w 196 2.718282 0
w -197 0.367879 0
w 197 2.718282 0
w -198 0.367879 0
w 198 2.718282 0
w -200 0.367879 0
w 200 2.718282 0
w -201 0.367879 0
w 201 2.718282 0
w -202 0.367879 0
w 202 2.718282 0
w -203 0.367879 0
w 203 2.718282 0
w -204 0.367879 0
w 204 2.718282 0
w -205 0.367879 0
w 205 2.718282 0
w -207 0.367879 0
w 207 2.718282 0
w -208 0.367879 0
w 208 2.718282 0
w -209 0.367879 0
w 209 2.718282 0
w -210 0.367879 0
w 210 2.718282 0
w -212 0.367879 0
w 212 2.718282 0
w -213 0.367879 0
w 213 2.718282 0
w -214 0.367879 0
w 214 2.718282 0
w -215 0.367879 0
w 215 2.718282 0
w -216 0.367879 0
w 216 2.718282 0
w -218 0.367879 0
w 218 2.718282 0
w -219 0.367879 0
w 219 2.718282 0
w -220 0.367879 0
w 220 2.718282 0
w -221 0.367879 0
w 221 2.718282 0
w -223 0.367879 0
w 223 2.718282 0
w -224 0.367879 0
w 224 2.718282 0
w -225 0.367879 0
w 225 2.718282 0
w -226 0.367879 0
w 226 2.718282 0
w -227 0.367879 0
w 227 2.718282 0
w -228 0.367879 0
w 228 2.718282 0
w -229 0.367879 0
w 229 2.718282 0
w -231 0.367879 0
w 231 2.718282 0
w -232 0.367879 0
w 232 2.718282 0
w -233 0.367879 0
w 233 2.718282 0
w -235 0.367879 0
w 235 2.718282 0
w -236 0.367879 0
w 236 2.718282 0
w -237 0.367879 0
w 237 2.718282 0
w -239 0.367879 0
w 239 2.718282 0
w -240 0.367879 0
w 240 2.718282 0
w -242 0.367879 0
w 242 2.718282 0
w -243 0.367879 0
w 243 2.718282 0
w -244 0.367879 0
w 244 2.718282 0
w -245 0.367879 0
w 245 2.718282 0
w -247 0.367879 0
w 247 2.718282 0
w -248 0.367879 0
w 248 2.718282 0
w -249 0.367879 0
w 249 2.718282 0
w -250 0.367879 0
w 250 2.718282 0
w -251 0.367879 0
w 251 2.718282 0
w -252 0.367879 0
w 252 2.718282 0
w -253 0.367879 0
w 253 2.718282 0
w -254 0.367879 0
w 254 2.718282 0
w -255 0.367879 0
w 255 2.718282 0
w -256 0.367879 0
w 256 2.718282 0
w -258 0.367879 0
w 258 2.718282 0
w -259 0.367879 0
w 259 2.718282 0
w -260 0.367879 0
w 260 2.718282 0
w -261 0.367879 0
w 261 2.718282 0
w -263 0.367879 0
w 263 2.718282 0
w -264 0.367879 0
w 264 2.718282 0
w -266 0.367879 0
w 266 2.718282 0
w -267 0.367879 0
w 267 2.718282 0
w -268 0.367879 0
w 268 2.718282 0
w -269 0.367879 0
w 269 2.718282 0
w -271 0.367879 0
w 271 2.718282 0
w -273 0.367879 0
w 273 2.718282 0
w -274 0.367879 0
w 274 2.718282 0
w -276 0.367879 0
w 276 2.718282 0
w -277 0.367879 0
w 277 2.718282 0
w -279 0.367879 0
w 279 2.718282 0
w -281 0.367879 0
w 281 2.718282 0
w -283 0.367879 0
w 283 2.718282 0
w -285 0.367879 0
w 285 2.718282 0
w -287 0.367879 0
w 287 2.718282 0
w -288 0.367879 0
w 288 2.718282 0
w -290 0.367879 0
w 290 2.718282 0
w -292 0.367879 0
w 292 2.718282 0
w -293 0.367879 0
w 293 2.718282 0
w -295 0.367879 0
w 295 2.718282 0
w -296 0.367879 0
w 296 2.718282 0
w -298 0.367879 0
w 298 2.718282 0
w -300 0.367879 0
w 300 2.718282 0
2 1 13 0
2 -1 -13 0
-2 1 -13 0
-2 -1 13 0
3 1 75 0
3 -1 -75 0
-3 1 -75 0
-3 -1 75 0
4 1 110 0
4 -1 -110 0
-4 1 -110 0
-4 -1 110 0
5 1 180 0
5 -1 -180 0
-5 1 -180 0
-5 -1 180 0
6 1 188 0
6 -1 -188 0
-6 1 -188 0
-6 -1 188 0
7 1 206 0
7 -1 -206 0
-7 1 -206 0
-7 -1 206 0
8 1 246 0
8 -1 -246 0
-8 1 -246 0
-8 -1 246 0
9 1 257 0
9 -1 -257 0
-9 1 -257 0
-9 -1 257 0
10 1 270 0
10 -1 -270 0
-10 1 -270 0
-10 -1 270 0
11 1 294 0
11 -1 -294 0
-11 1 -294 0
-11 -1 294 0
12 1 297 0
12 -1 -297 0
-12 1 -297 0
-12 -1 297 0
14 13 60 0
14 -13 -60 0
-14 13 -60 0
-14 -13 60 0
15 13 148 0
15 -13 -148 0
-15 13 -148 0
-15 -13 148 0
16 13 188 0
16 -13 -188 0
-16 13 -188 0
-16 -13 188 0
17 13 278 0
17 -13 -278 0
-17 13 -278 0
-17 -13 278 0
18 13 280 0
18 -13 -280 0
-18 13 -280 0
-18 -13 280 0
19 13 289 0
19 -13 -289 0
-19 13 -289 0
-19 -13 289 0
20 13 294 0
20 -13 -294 0
-20 13 -294 0
-20 -13 294 0
22 21 35 0
22 -21 -35 0
-22 21 -35 0
-22 -21 35 0
23 21 48 0
23 -21 -48 0
-23 21 -48 0
-23 -21 48 0
24 21 86 0
24 -21 -86 0
-24 21 -86 0
-24 -21 86 0
25 21 110 0
25 -21 -110 0
-25 21 -110 0
-25 -21 110 0
26 21 116 0
26 -21 -116 0
-26 21 -116 0
-26 -21 116 0
27 21 180 0
27 -21 -180 0
-27 21 -180 0
-27 -21 180 0
28 21 206 0
28 -21 -206 0
-28 21 -206 0
-28 -21 206 0
29 21 211 0
29 -21 -211 0
-29 21 -211 0
-29 -21 211 0
30 21 234 0
30 -21 -234 0
-30 21 -234 0
-30 -21 234 0
31 21 262 0
31 -21 -262 0
-31 21 -262 0
-31 -21 262 0
32 21 278 0
32 -21 -278 0
-32 21 -278 0
-32 -21 278 0
33 21 297 0
33 -21 -297 0
-33 21 -297 0
-33 -21 297 0
34 21 301 0
34 -21 -301 0
-34 21 -301 0
-34 -21 301 0
36 35 48 0
36 -35 -48 0
-36 35 -48 0
-36 -35 48 0
37 35 86 0
37 -35 -86 0
-37 35 -86 0
-37 -35 86 0
38 35 100 0
38 -35 -100 0
-38 35 -100 0
-38 -35 100 0
39 35 155 0
39 -35 -155 0
-39 35 -155 0
-39 -35 155 0
40 35 180 0
40 -35 -180 0
-40 35 -180 0
-40 -35 180 0
41 35 188 0
41 -35 -188 0
-41 35 -188 0
-41 -35 188 0
42 35 257 0
42 -35 -257 0
-42 35 -257 0
-42 -35 257 0
43 35 262 0
43 -35 -262 0
-43 35 -262 0
-43 -35 262 0
44 35 265 0
44 -35 -265 0
-44 35 -265 0
-44 -35 265 0
45 35 278 0
45 -35 -278 0
-45 35 -278 0
-45 -35 278 0
46 35 291 0
46 -35 -291 0
-46 35 -291 0
-46 -35 291 0
47 35 294 0
47 -35 -294 0
-47 35 -294 0
-47 -35 294 0
49 48 60 0
49 -48 -60 0
-49 48 -60 0
-49 -48 60 0
50 48 70 0
50 -48 -70 0
-50 48 -70 0
-50 -48 70 0
51 48 75 0
51 -48 -75 0
-51 48 -75 0
-51 -48 75 0
52 48 100 0
52 -48 -100 0
-52 48 -100 0
-52 -48 100 0
53 48 188 0
53 -48 -188 0
-53 48 -188 0
-53 -48 188 0
54 48 199 0
54 -48 -199 0
-54 48 -199 0
-54 -48 199 0
55 48 257 0
55 -48 -257 0
-55 48 -257 0
-55 -48 257 0
56 48 262 0
56 -48 -262 0
-56 48 -262 0
-56 -48 262 0
57 48 284 0
57 -48 -284 0
-57 48 -284 0
-57 -48 284 0
58 48 289 0
58 -48 -289 0
-58 48 -289 0
-58 -48 289 0
59 48 294 0
59 -48 -294 0
-59 48 -294 0
-59 -48 294 0
61 60 131 0
61 -60 -131 0
-61 60 -131 0
-61 -60 131 0
62 60 136 0
62 -60 -136 0
-62 60 -136 0
-62 -60 136 0
63 60 188 0
63 -60 -188 0
-63 60 -188 0
-63 -60 188 0
64 60 206 0
64 -60 -206 0
-64 60 -206 0
-64 -60 206 0
65 60 230 0
65 -60 -230 0
-65 60 -230 0
-65 -60 230 0
66 60 282 0
66 -60 -282 0
-66 60 -282 0
-66 -60 282 0
67 60 299 0
67 -60 -299 0
-67 60 -299 0
-67 -60 299 0
68 60 301 0
68 -60 -301 0
-68 60 -301 0
-68 -60 301 0
69 60 302 0
69 -60 -302 0
-69 60 -302 0
-69 -60 302 0
71 70 155 0
71 -70 -155 0
-71 70 -155 0
-71 -70 155 0
72 70 230 0
72 -70 -230 0
-72 70 -230 0
-72 -70 230 0
73 70 265 0
73 -70 -265 0
-73 70 -265 0
-73 -70 265 0
74 70 286 0
74 -70 -286 0
-74 70 -286 0
-74 -70 286 0
76 75 100 0
76 -75 -100 0
-76 75 -100 0
-76 -75 100 0
77 75 155 0
77 -75 -155 0
-77 75 -155 0
-77 -75 155 0
78 75 188 0
78 -75 -188 0
-78 75 -188 0
-78 -75 188 0
79 75 199 0
79 -75 -199 0
-79 75 -199 0
-79 -75 199 0
80 75 206 0
80 -75 -206 0
-80 75 -206 0
-80 -75 206 0
81 75 238 0
81 -75 -238 0
-81 75 -238 0
-81 -75 238 0
82 75 286 0
82 -75 -286 0
-82 75 -286 0
-82 -75 286 0
83 75 291 0
83 -75 -291 0
-83 75 -291 0
-83 -75 291 0
84 75 297 0
84 -75 -297 0
-84 75 -297 0
-84 -75 297 0
85 75 301 0
85 -75 -301 0
-85 75 -301 0
-85 -75 301 0
87 86 100 0
87 -86 -100 0
-87 86 -100 0
-87 -86 100 0
88 86 116 0
88 -86 -116 0
-88 86 -116 0
-88 -86 116 0
89 86 124 0
89 -86 -124 0
-89 86 -124 0
-89 -86 124 0
90 86 148 0
90 -86 -148 0
-90 86 -148 0
-90 -86 148 0
91 86 180 0
91 -86 -180 0
-91 86 -180 0
-91 -86 180 0
92 86 206 0
92 -86 -206 0
-92 86 -206 0
-92 -86 206 0
93 86 222 0
93 -86 -222 0
-93 86 -222 0
-93 -86 222 0
94 86 234 0
94 -86 -234 0
-94 86 -234 0
-94 -86 234 0
95 86 246 0
95 -86 -246 0
-95 86 -246 0
-95 -86 246 0
96 86 272 0
96 -86 -272 0
-96 86 -272 0
-96 -86 272 0
97 86 275 0
97 -86 -275 0
-97 86 -275 0
-97 -86 275 0
98 86 297 0
98 -86 -297 0
-98 86 -297 0
-98 -86 297 0
99 86 299 0
99 -86 -299 0
-99 86 -299 0
-99 -86 299 0
101 100 110 0
101 -100 -110 0
-101 100 -110 0
-101 -100 110 0
102 100 162 0
102 -100 -162 0
-102 100 -162 0
-102 -100 162 0
103 100 246 0
103 -100 -246 0
-103 100 -246 0
-103 -100 246 0
104 100 275 0
104 -100 -275 0
-104 100 -275 0
-104 -100 275 0
105 100 278 0
105 -100 -278 0
-105 100 -278 0
-105 -100 278 0
106 100 284 0
106 -100 -284 0
-106 100 -284 0
-106 -100 284 0
107 100 289 0
107 -100 -289 0
-107 100 -289 0
-107 -100 289 0
108 100 297 0
108 -100 -297 0
-108 100 -297 0
-108 -100 297 0
109 100 299 0
109 -100 -299 0
-109 100 -299 0
-109 -100 299 0
111 110 116 0
111 -110 -116 0
-111 110 -116 0
-111 -110 116 0
112 110 155 0
112 -110 -155 0
-112 110 -155 0
-112 -110 155 0
113 110 162 0
113 -110 -162 0
-113 110 -162 0
-113 -110 162 0
114 110 206 0
114 -110 -206 0
-114 110 -206 0
-114 -110 206 0
115 110 280 0
115 -110 -280 0
-115 110 -280 0
-115 -110 280 0
117 116 124 0
117 -116 -124 0
-117 116 -124 0
-117 -116 124 0
118 116 180 0
118 -116 -180 0
-118 116 -180 0
-118 -116 180 0
119 116 199 0
119 -116 -199 0
-119 116 -199 0
-119 -116 199 0
120 116 234 0
120 -116 -234 0
-120 116 -234 0
-120 -116 234 0
121 116 265 0
121 -116 -265 0
-121 116 -265 0
-121 -116 265 0
122 116 284 0
122 -116 -284 0
-122 116 -284 0
-122 -116 284 0
123 116 286 0
123 -116 -286 0
-123 116 -286 0
-123 -116 286 0
125 124 206 0
125 -124 -206 0
-125 124 -206 0
-125 -124 206 0
126 124 238 0
126 -124 -238 0
-126 124 -238 0
-126 -124 238 0
127 124 275 0
127 -124 -275 0
-127 124 -275 0
-127 -124 275 0
128 124 286 0
128 -124 -286 0
-128 124 -286 0
-128 -124 286 0
129 124 297 0
129 -124 -297 0
-129 124 -297 0
-129 -124 297 0
130 124 299 0
130 -124 -299 0
-130 124 -299 0
-130 -124 299 0
132 131 230 0
132 -131 -230 0
-132 131 -230 0
-132 -131 230 0
133 131 272 0
133 -131 -272 0
-133 131 -272 0
-133 -131 272 0
134 131 275 0
134 -131 -275 0
-134 131 -275 0
-134 -131 275 0
135 131 278 0
135 -131 -278 0
-135 131 -278 0
-135 -131 278 0
137 136 162 0
137 -136 -162 0
-137 136 -162 0
-137 -136 162 0
138 136 172 0
138 -136 -172 0
-138 136 -172 0
-138 -136 172 0
139 136 180 0
139 -136 -180 0
-139 136 -180 0
-139 -136 180 0
140 136 188 0
140 -136 -188 0
-140 136 -188 0
-140 -136 188 0
141 136 206 0
141 -136 -206 0
-141 136 -206 0
-141 -136 206 0
142 136 222 0
142 -136 -222 0
-142 136 -222 0
-142 -136 222 0
143 136 230 0
143 -136 -230 0
-143 136 -230 0
-143 -136 230 0
144 136 257 0
144 -136 -257 0
-144 136 -257 0
-144 -136 257 0
145 136 262 0
145 -136 -262 0
-145 136 -262 0
-145 -136 262 0
146 136 280 0
146 -136 -280 0
-146 136 -280 0
-146 -136 280 0
147 136 299 0
147 -136 -299 0
-147 136 -299 0
-147 -136 299 0
149 148 206 0
149 -148 -206 0
-149 148 -206 0
-149 -148 206 0
150 148 257 0
150 -148 -257 0
-150 148 -257 0
-150 -148 257 0
151 148 270 0
151 -148 -270 0
-151 148 -270 0
-151 -148 270 0
152 148 294 0
152 -148 -294 0
-152 148 -294 0
-152 -148 294 0
153 148 299 0
153 -148 -299 0
-153 148 -299 0
-153 -148 299 0
154 148 301 0
154 -148 -301 0
-154 148 -301 0
-154 -148 301 0
156 155 162 0
156 -155 -162 0
-156 155 -162 0
-156 -155 162 0
157 155 199 0
157 -155 -199 0
-157 155 -199 0
-157 -155 199 0
158 155 230 0
158 -155 -230 0
-158 155 -230 0
-158 -155 230 0
159 155 275 0
159 -155 -275 0
-159 155 -275 0
-159 -155 275 0
160 155 284 0
160 -155 -284 0
-160 155 -284 0
-160 -155 284 0
161 155 299 0
161 -155 -299 0
-161 155 -299 0
-161 -155 299 0
163 162 194 0
163 -162 -194 0
-163 162 -194 0
-163 -162 194 0
164 162 222 0
164 -162 -222 0
-164 162 -222 0
-164 -162 222 0
165 162 265 0
165 -162 -265 0
-165 162 -265 0
-165 -162 265 0
166 162 278 0
166 -162 -278 0
-166 162 -278 0
-166 -162 278 0
167 162 280 0
167 -162 -280 0
-167 162 -280 0
-167 -162 280 0
168 162 286 0
168 -162 -286 0
-168 162 -286 0
-168 -162 286 0
169 162 289 0
169 -162 -289 0
-169 162 -289 0
-169 -162 289 0
170 162 299 0
170 -162 -299 0
-170 162 -299 0
-170 -162 299 0
171 162 302 0
171 -162 -302 0
-171 162 -302 0
-171 -162 302 0
173 172 188 0
173 -172 -188 0
-173 172 -188 0
-173 -172 188 0
174 172 194 0
174 -172 -194 0
-174 172 -194 0
-174 -172 194 0
175 172 265 0
175 -172 -265 0
-175 172 -265 0
-175 -172 265 0
176 172 272 0
176 -172 -272 0
-176 172 -272 0
-176 -172 272 0
177 172 275 0
177 -172 -275 0
-177 172 -275 0
-177 -172 275 0
178 172 294 0
178 -172 -294 0
-178 172 -294 0
-178 -172 294 0
179 172 301 0
179 -172 -301 0
-179 172 -301 0
-179 -172 301 0
181 180 222 0
181 -180 -222 0
-181 180 -222 0
-181 -180 222 0
182 180 241 0
182 -180 -241 0
-182 180 -241 0
-182 -180 241 0
183 180 246 0
183 -180 -246 0
-183 180 -246 0
-183 -180 246 0
184 180 272 0
184 -180 -272 0
-184 180 -272 0
-184 -180 272 0
185 180 289 0
185 -180 -289 0
-185 180 -289 0
-185 -180 289 0
186 180 297 0
186 -180 -297 0
-186 180 -297 0
-186 -180 297 0
187 180 299 0
187 -180 -299 0
-187 180 -299 0
-187 -180 299 0
189 188 238 0
189 -188 -238 0
-189 188 -238 0
-189 -188 238 0
190 188 289 0
190 -188 -289 0
-190 188 -289 0
-190 -188 289 0
191 188 294 0
191 -188 -294 0
-191 188 -294 0
-191 -188 294 0
192 188 297 0
192 -188 -297 0
-192 188 -297 0
-192 -188 297 0
193 188 299 0
193 -188 -299 0
-193 188 -299 0
-193 -188 299 0
195 194 199 0
195 -194 -199 0
-195 194 -199 0
-195 -194 199 0
196 194 222 0
196 -194 -222 0
-196 194 -222 0
-196 -194 222 0
197 194 270 0
197 -194 -270 0
-197 194 -270 0
-197 -194 270 0
198 194 275 0
198 -194 -275 0
-198 194 -275 0
-198 -194 275 0
200 199 241 0
200 -199 -241 0
-200 199 -241 0
-200 -199 241 0
201 199 246 0
201 -199 -246 0
-201 199 -246 0
-201 -199 246 0
202 199 257 0
202 -199 -257 0
-202 199 -257 0
-202 -199 257 0
203 199 262 0
203 -199 -262 0
-203 199 -262 0
-203 -199 262 0
204 199 265 0
204 -199 -265 0
-204 199 -265 0
-204 -199 265 0
205 199 270 0
205 -199 -270 0
-205 199 -270 0
-205 -199 270 0
207 206 270 0
207 -206 -270 0
-207 206 -270 0
-207 -206 270 0
208 206 291 0
208 -206 -291 0
-208 206 -291 0
-208 -206 291 0
209 206 294 0
209 -206 -294 0
-209 206 -294 0
-209 -206 294 0
210 206 301 0
210 -206 -301 0
-210 206 -301 0
-210 -206 301 0
212 211 257 0
212 -211 -257 0
-212 211 -257 0
-212 -211 257 0
213 211 262 0
213 -211 -262 0
-213 211 -262 0
-213 -211 262 0
214 211 278 0
214 -211 -278 0
-214 211 -278 0
-214 -211 278 0
215 211 280 0
215 -211 -280 0
-215 211 -280 0
-215 -211 280 0
216 211 301 0
216 -211 -301 0
-216 211 -301 0
-216 -211 301 0
218 217 246 0
218 -217 -246 0
-218 217 -246 0
-218 -217 246 0
219 217 265 0
219 -217 -265 0
-219 217 -265 0
-219 -217 265 0
220 217 299 0
220 -217 -299 0
-220 217 -299 0
-220 -217 299 0
221 217 301 0
221 -217 -301 0
-221 217 -301 0
-221 -217 301 0
223 222 230 0
223 -222 -230 0
-223 222 -230 0
-223 -222 230 0
224 222 257 0
224 -222 -257 0
-224 222 -257 0
-224 -222 257 0
225 222 272 0
225 -222 -272 0
-225 222 -272 0
-225 -222 272 0
226 222 278 0
226 -222 -278 0
-226 222 -278 0
-226 -222 278 0
227 222 282 0
227 -222 -282 0
-227 222 -282 0
-227 -222 282 0
228 222 289 0
228 -222 -289 0
-228 222 -289 0
-228 -222 289 0
229 222 294 0
229 -222 -294 0
-229 222 -294 0
-229 -222 294 0
231 230 246 0
231 -230 -246 0
-231 230 -246 0
-231 -230 246 0
232 230 270 0
232 -230 -270 0
-232 230 -270 0
-232 -230 270 0
233 230 294 0
233 -230 -294 0
-233 230 -294 0
-233 -230 294 0
235 234 246 0
235 -234 -246 0
-235 234 -246 0
-235 -234 246 0
236 234 270 0
236 -234 -270 0
-236 234 -270 0
-236 -234 270 0
237 234 291 0
237 -234 -291 0
-237 234 -291 0
-237 -234 291 0
239 238 282 0
239 -238 -282 0
-239 238 -282 0
-239 -238 282 0
240 238 284 0
240 -238 -284 0
-240 238 -284 0
-240 -238 284 0
242 241 265 0
242 -241 -265 0
-242 241 -265 0
-242 -241 265 0
243 241 270 0
243 -241 -270 0
-243 241 -270 0
-243 -241 270 0
244 241 286 0
244 -241 -286 0
-244 241 -286 0
-244 -241 286 0
245 241 301 0
245 -241 -301 0
-245 241 -301 0
-245 -241 301 0
247 246 257 0
247 -246 -257 0
-247 246 -257 0
-247 -246 257 0
248 246 262 0
248 -246 -262 0
-248 246 -262 0
-248 -246 262 0
249 246 272 0
249 -246 -272 0
-249 246 -272 0
-249 -246 272 0
250 246 275 0
250 -246 -275 0
-250 246 -275 0
-250 -246 275 0
251 246 282 0
251 -246 -282 0
-251 246 -282 0
-251 -246 282 0
252 246 286 0
252 -246 -286 0
-252 246 -286 0
-252 -246 286 0
253 246 289 0
253 -246 -289 0
-253 246 -289 0
-253 -246 289 0
254 246 294 0
254 -246 -294 0
-254 246 -294 0
-254 -246 294 0
255 246 297 0
255 -246 -297 0
-255 246 -297 0
-255 -246 297 0
256 246 299 0
256 -246 -299 0
-256 246 -299 0
-256 -246 299 0
258 257 265 0
258 -257 -265 0
-258 257 -265 0
-258 -257 265 0
259 257 270 0
259 -257 -270 0
-259 257 -270 0
-259 -257 270 0
260 257 278 0
260 -257 -278 0
-260 257 -278 0
-260 -257 278 0
261 257 289 0
261 -257 -289 0
-261 257 -289 0
-261 -257 289 0
263 262 270 0
263 -262 -270 0
-263 262 -270 0
-263 -262 270 0
264 262 291 0
264 -262 -291 0
-264 262 -291 0
-264 -262 291 0
266 265 278 0
266 -265 -278 0
-266 265 -278 0
-266 -265 278 0
267 265 280 0
267 -265 -280 0
-267 265 -280 0
-267 -265 280 0
268 265 286 0
268 -265 -286 0
-268 265 -286 0
-268 -265 286 0
269 265 289 0
269 -265 -289 0
-269 265 -289 0
-269 -265 289 0
271 270 282 0
271 -270 -282 0
-271 270 -282 0
-271 -270 282 0
273 272 282 0
273 -272 -282 0
-273 272 -282 0
-273 -272 282 0
274 272 289 0
274 -272 -289 0
-274 272 -289 0
-274 -272 289 0
276 275 289 0
276 -275 -289 0
-276 275 -289 0
-276 -275 289 0
277 275 291 0
277 -275 -291 0
-277 275 -291 0
-277 -275 291 0
279 278 297 0
279 -278 -297 0
-279 278 -297 0
-279 -278 297 0
281 280 297 0
281 -280 -297 0
-281 280 -297 0
-281 -280 297 0
283 282 284 0
283 -282 -284 0
-283 282 -284 0
-283 -282 284 0
285 284 291 0
285 -284 -291 0
-285 284 -291 0
-285 -284 291 0
287 286 297 0
287 -286 -297 0
-287 286 -297 0
-287 -286 297 0
288 286 301 0
288 -286 -301 0
-288 286 -301 0
-288 -286 301 0
290 289 291 0
290 -289 -291 0
-290 289 -291 0
-290 -289 291 0
292 291 294 0
292 -291 -294 0
-292 291 -294 0
-292 -291 294 0
293 291 299 0
293 -291 -299 0
-293 291 -299 0
-293 -291 299 0
295 294 299 0
295 -294 -299 0
-295 294 -299 0
-295 -294 299 0
296 294 301 0
296 -294 -301 0
-296 294 -301 0
-296 -294 301 0
298 297 301 0
298 -297 -301 0
-298 297 -301 0
-298 -297 301 0
300 299 301 0
300 -299 -301 0
-300 299 -301 0
-300 -299 301 0
